500
[114,115,116,117,122,128,130,145,149,152,159,163,168,171,174,176,178,185,194,199,201,203,208,229,233,240,241,255,266,271,275,276,278,279,282,283,286,297,298,301,319,327,332,334,335,337,338,342]
[1,1,1,1,1,1,1,1,1,1,2,1,1,1,1,1,1,1,1,1,1,1,1,1,1,1,1,1,1,1,1,1,1,1,1,1,1,1,1,1,2,1,1,1,1,1,1,1]
